34610
001010100011010010110001110111
18 6 2 27 2 25 2 27 25 19 4 23 23 13 28 18 13 10 27 27 27 16 28 24 10 27 18 28 29 2 6 19 4 16 27 4 10 13 2 16 18 4 6 6 23 6 13 16 19 10 24 16 2 16 10 6 16 4 18 11 29 2 24 23 13 27 23 19 19 25 18 25 28 19 10 29 13 23 10 24 23 27 29 18 29 13 6 2 27 18 28 19 25 25 2 13 27 28 24 28 4 2 25 18 4 24 4 24 27 13 19 19 27 11 6 10 11 28 19 13 19 25 6 19 29 16 2 6 19 2 28 24 6 13 13 4 13 13 28 10 11 18 28 11 25 10 24 16 27 25 24 19 23 28 13 27 2 2 13 13 13 24 10 24 23 27 23 29 13 2 13 13 6 10 4 2 24 10 4 23 23 16 24 4 25 29 28 23 27 10 2 24 6 29 18 6 25 2 10 19 